%chk=C:\Users\Administrator\Desktop\MatlabCode\DFT_fun_v1.0\gaussian_testjob\BENZENE.chk
# hf geom=connectivity 3-21g

Title Card Required

0 1
 C                 -1.05533500   -0.91639900    0.00010300
 C                  0.26644600   -1.37152600   -0.00035000
 C                  1.32144800   -0.45543700    0.00021200
 C                  1.05502000    0.91649500   -0.00005200
 C                 -0.26615100    1.37179900    0.00009400
 C                 -1.32150300    0.45506600   -0.00002700
 H                 -1.87631800   -1.63061900    0.00016800
 H                  0.47374900   -2.43983000    0.00000500
 H                  2.35008500   -0.81033300    0.00020000
 H                  1.87651700    1.63020500    0.00023100
 H                 -0.47355400    2.44014200   -0.00103300
 H                 -2.35002100    0.81044900    0.00054600

 1 2 1.5 6 1.5 7 1.0
 2 3 1.5 8 1.0
 3 4 1.5 9 1.0
 4 5 1.5 10 1.0
 5 6 1.5 11 1.0
 6 12 1.0
 7
 8
 9
 10
 11
 12

