%chk=C:\Users\Administrator\Desktop\MatlabCode\DFT_fun_v1.0\gaussian_testjob\BENZENE2.chk
# hf geom=connectivity sto-2g

Title Card Required

0 1
 C                  0.00000000    1.39768344   -0.00000000
 C                 -1.21042936    0.69884172   -0.00000000
 C                 -1.21042936   -0.69884172   -0.00000000
 C                 -0.00000000   -1.39768344   -0.00000000
 C                  1.21042936   -0.69884172   -0.00000000
 C                  1.21042936    0.69884172   -0.00000000
 H                  0.00000000    2.48585764    0.00000000
 H                 -2.15281587    1.24292882    0.00000000
 H                 -2.15281587   -1.24292882    0.00000000
 H                 -0.00000000   -2.48585764    0.00000000
 H                  2.15281587   -1.24292882    0.00000000
 H                  2.15281587    1.24292882    0.00000000

 1 2 1.5 6 1.5 7 1.0
 2 3 1.5 8 1.0
 3 4 1.5 9 1.0
 4 5 1.5 10 1.0
 5 6 1.5 11 1.0
 6 12 1.0
 7
 8
 9
 10
 11
 12

