%chk=C:\Users\Administrator\Desktop\MatlabCode\DFT_fun_v1.0\gaussian_testjob\h2_xalpha.chk
# geom=connectivity sto-2g xalpha

Title Card Required

0 1
 H                 -0.38898417    0.30366352    0.00000000
 H                 -0.98898417    0.30366352    0.00000000

 1 2 1.0
 2

